35 
300 
10.5 14.4 0 0
11.2 14.1 0 -19
18 15.9 10 -27
18.3 13.3 -10 -125
16.5 9.3 10 -10
15.4 11 10 -11
14.9 13.2 -5 -119
16.3 13.3 -5 -121
16.4 17.8 5 -21
15 17.9 5 -25
16.1 19.6 -10 -115
15.7 20.6 -10 -109
13.2 20.1 -10 -120
14.3 15.3 -5 -61
14 5.1 -10 -73
11.4 6.7 15 -23
8.3 5 -15 -139
7.9 9.8 -10 -137
11.4 12 5 -26
11.2 17.6 -5 -80
10.1 18.7 -5 -69
11.7 20.3 10 -28
10.2 22.1 -10 -102
9.7 23.8 -10 -65
10.1 26.4 -15 -137
7.4 24 15 -15
8.2 19.9 15 -17
8.7 17.7 10 -25
8.9 13.6 -10 -124
5.6 11.1 -10 -130
4.9 18.9 10 -21
7.3 18.8 10 -10
